words_hard_train/7972.qaiger
aag 209 23 0 1 186
2
4
10
18
52
60
92
94
98
134
142
174
194
202
234
254
262
294
314
322
354
370
374
418
6 3 5
8 7 3
12 4 10
14 5 11
16 13 15
20 16 18
22 17 19
24 21 23
26 6 24
28 7 25
30 27 29
32 30 18
34 31 19
36 33 35
38 8 36
40 39 35
42 2 4
44 43 21
46 44 23
48 47 29
50 45 23
54 15 52
56 14 53
58 55 57
62 59 61
64 58 60
66 63 65
68 51 67
70 50 66
72 69 71
74 49 72
76 48 73
78 75 77
80 79 60
82 78 61
84 81 83
86 40 85
88 41 84
90 87 89
96 93 95
100 97 98
102 96 99
104 101 103
106 4 92
108 107 95
110 9 37
112 111 39
114 109 113
116 115 97
118 106 94
120 116 119
122 104 120
124 91 123
126 105 121
128 125 127
130 89 83
132 71 65
136 57 134
138 56 135
140 137 139
144 141 143
146 140 142
148 145 147
150 132 149
152 133 148
154 151 153
156 77 154
158 76 155
160 157 159
162 161 142
164 160 143
166 163 165
168 130 167
170 131 166
172 169 171
176 103 174
178 102 175
180 177 179
182 172 180
184 129 183
186 173 181
188 185 187
190 171 165
192 153 147
196 139 194
198 138 195
200 197 199
204 201 203
206 200 202
208 205 207
210 192 209
212 193 208
214 211 213
216 159 214
218 158 215
220 217 219
222 221 202
224 220 203
226 223 225
228 190 227
230 191 226
232 229 231
236 179 234
238 178 235
240 237 239
242 232 240
244 189 243
246 233 241
248 245 247
250 231 225
252 213 207
256 199 254
258 198 255
260 257 259
264 261 263
266 260 262
268 265 267
270 252 269
272 253 268
274 271 273
276 219 274
278 218 275
280 277 279
282 281 262
284 280 263
286 283 285
288 250 287
290 251 286
292 289 291
296 239 294
298 238 295
300 297 299
302 293 301
304 248 303
306 292 300
308 305 307
310 291 285
312 273 267
316 259 314
318 258 315
320 317 319
324 321 323
326 320 322
328 325 327
330 312 329
332 313 328
334 331 333
336 279 334
338 278 335
340 337 339
342 341 322
344 340 323
346 343 345
348 310 347
350 311 346
352 349 351
356 299 354
358 298 355
360 357 359
362 353 361
364 309 363
366 352 360
368 365 367
372 369 370
376 318 375
378 319 374
380 377 379
382 333 327
384 381 382
386 380 383
388 385 387
390 389 339
392 388 338
394 391 393
396 351 345
398 395 396
400 394 397
402 399 401
404 403 358
406 373 405
408 402 359
410 368 371
412 409 411
414 406 413
416 372 404
418 415 417
i0 2 y1[0]
i1 2 y2[0]
i2 2 y2[1]
i3 2 y1[1]
i4 2 y2[2]
i5 2 y1[2]
i6 1 x2[0]
i7 1 x2[1]
i8 1 x2[2]
i9 2 y2[3]
i10 2 y1[3]
i11 1 x2[3]
i12 2 y2[4]
i13 2 y1[4]
i14 1 x2[4]
i15 2 y2[5]
i16 2 y1[5]
i17 1 x2[5]
i18 2 y2[6]
i19 2 y1[6]
i20 1 x2[6]
i21 1 x2[7]
i22 2 y2[7]
o0 bv[0]
c
simplified
  <=
    1 x2
    subtract
      invert
        2 y1
      subtract
        2 y1
        2 y2
