words_hard_train/7972.qaiger.qdimacs
p cnf 209 559
a 46 47 49 177 147 117 87 185 0
e 1 2 3 4 5 6 7 8 9 10 11 12 13 14 15 16 17 18 19 20 21 22 23 24 25 26 27 28 29 30 31 32 33 34 35 36 37 38 39 40 41 42 43 44 45 48 50 51 52 53 54 55 56 57 58 59 60 61 62 63 64 65 66 67 68 69 70 71 72 73 74 75 76 77 78 79 80 81 82 83 84 85 86 88 89 90 91 92 93 94 95 96 97 98 99 100 101 102 103 104 105 106 107 108 109 110 111 112 113 114 115 116 118 119 120 121 122 123 124 125 126 127 128 129 130 131 132 133 134 135 136 137 138 139 140 141 142 143 144 145 146 148 149 150 151 152 153 154 155 156 157 158 159 160 161 162 163 164 165 166 167 168 169 170 171 172 173 174 175 176 178 179 180 181 182 183 184 186 187 188 189 190 191 192 193 194 195 196 197 198 199 200 201 202 203 204 205 206 207 208 209 0
1 2 3 0
-1 -3 0
-2 -3 0
3 1 4 0
-3 -4 0
-1 -4 0
-2 -5 6 0
2 -6 0
5 -6 0
2 5 7 0
-2 -7 0
-5 -7 0
6 7 8 0
-6 -8 0
-7 -8 0
-8 -9 10 0
8 -10 0
9 -10 0
8 9 11 0
-8 -11 0
-9 -11 0
10 11 12 0
-10 -12 0
-11 -12 0
-3 -12 13 0
3 -13 0
12 -13 0
3 12 14 0
-3 -14 0
-12 -14 0
13 14 15 0
-13 -15 0
-14 -15 0
-15 -9 16 0
15 -16 0
9 -16 0
15 9 17 0
-15 -17 0
-9 -17 0
16 17 18 0
-16 -18 0
-17 -18 0
-4 -18 19 0
4 -19 0
18 -19 0
19 17 20 0
-19 -20 0
-17 -20 0
-1 -2 21 0
1 -21 0
2 -21 0
21 10 22 0
-21 -22 0
-10 -22 0
-22 11 23 0
22 -23 0
-11 -23 0
23 14 24 0
-23 -24 0
-14 -24 0
22 11 25 0
-22 -25 0
-11 -25 0
7 -26 27 0
-7 -27 0
26 -27 0
-7 26 28 0
7 -28 0
-26 -28 0
27 28 29 0
-27 -29 0
-28 -29 0
29 30 31 0
-29 -31 0
-30 -31 0
-29 -30 32 0
29 -32 0
30 -32 0
31 32 33 0
-31 -33 0
-32 -33 0
25 33 34 0
-25 -34 0
-33 -34 0
-25 -33 35 0
25 -35 0
33 -35 0
34 35 36 0
-34 -36 0
-35 -36 0
24 -36 37 0
-24 -37 0
36 -37 0
-24 36 38 0
24 -38 0
-36 -38 0
37 38 39 0
-37 -39 0
-38 -39 0
39 -30 40 0
-39 -40 0
30 -40 0
-39 30 41 0
39 -41 0
-30 -41 0
40 41 42 0
-40 -42 0
-41 -42 0
-20 42 43 0
20 -43 0
-42 -43 0
20 -42 44 0
-20 -44 0
42 -44 0
43 44 45 0
-43 -45 0
-44 -45 0
46 47 48 0
-46 -48 0
-47 -48 0
48 -49 50 0
-48 -50 0
49 -50 0
-48 49 51 0
48 -51 0
-49 -51 0
50 51 52 0
-50 -52 0
-51 -52 0
-2 -46 53 0
2 -53 0
46 -53 0
53 47 54 0
-53 -54 0
-47 -54 0
4 18 55 0
-4 -55 0
-18 -55 0
55 19 56 0
-55 -56 0
-19 -56 0
54 56 57 0
-54 -57 0
-56 -57 0
57 48 58 0
-57 -58 0
-48 -58 0
-53 -47 59 0
53 -59 0
47 -59 0
-58 59 60 0
58 -60 0
-59 -60 0
-52 -60 61 0
52 -61 0
60 -61 0
45 61 62 0
-45 -62 0
-61 -62 0
52 60 63 0
-52 -63 0
-60 -63 0
62 63 64 0
-62 -64 0
-63 -64 0
44 41 65 0
-44 -65 0
-41 -65 0
35 32 66 0
-35 -66 0
-32 -66 0
28 -67 68 0
-28 -68 0
67 -68 0
-28 67 69 0
28 -69 0
-67 -69 0
68 69 70 0
-68 -70 0
-69 -70 0
70 71 72 0
-70 -72 0
-71 -72 0
-70 -71 73 0
70 -73 0
71 -73 0
72 73 74 0
-72 -74 0
-73 -74 0
-66 74 75 0
66 -75 0
-74 -75 0
66 -74 76 0
-66 -76 0
74 -76 0
75 76 77 0
-75 -77 0
-76 -77 0
38 -77 78 0
-38 -78 0
77 -78 0
-38 77 79 0
38 -79 0
-77 -79 0
78 79 80 0
-78 -80 0
-79 -80 0
80 -71 81 0
-80 -81 0
71 -81 0
-80 71 82 0
80 -82 0
-71 -82 0
81 82 83 0
-81 -83 0
-82 -83 0
-65 83 84 0
65 -84 0
-83 -84 0
65 -83 85 0
-65 -85 0
83 -85 0
84 85 86 0
-84 -86 0
-85 -86 0
51 -87 88 0
-51 -88 0
87 -88 0
-51 87 89 0
51 -89 0
-87 -89 0
88 89 90 0
-88 -90 0
-89 -90 0
-86 -90 91 0
86 -91 0
90 -91 0
64 91 92 0
-64 -92 0
-91 -92 0
86 90 93 0
-86 -93 0
-90 -93 0
92 93 94 0
-92 -94 0
-93 -94 0
85 82 95 0
-85 -95 0
-82 -95 0
76 73 96 0
-76 -96 0
-73 -96 0
69 -97 98 0
-69 -98 0
97 -98 0
-69 97 99 0
69 -99 0
-97 -99 0
98 99 100 0
-98 -100 0
-99 -100 0
100 101 102 0
-100 -102 0
-101 -102 0
-100 -101 103 0
100 -103 0
101 -103 0
102 103 104 0
-102 -104 0
-103 -104 0
-96 104 105 0
96 -105 0
-104 -105 0
96 -104 106 0
-96 -106 0
104 -106 0
105 106 107 0
-105 -107 0
-106 -107 0
79 -107 108 0
-79 -108 0
107 -108 0
-79 107 109 0
79 -109 0
-107 -109 0
108 109 110 0
-108 -110 0
-109 -110 0
110 -101 111 0
-110 -111 0
101 -111 0
-110 101 112 0
110 -112 0
-101 -112 0
111 112 113 0
-111 -113 0
-112 -113 0
-95 113 114 0
95 -114 0
-113 -114 0
95 -113 115 0
-95 -115 0
113 -115 0
114 115 116 0
-114 -116 0
-115 -116 0
89 -117 118 0
-89 -118 0
117 -118 0
-89 117 119 0
89 -119 0
-117 -119 0
118 119 120 0
-118 -120 0
-119 -120 0
-116 -120 121 0
116 -121 0
120 -121 0
94 121 122 0
-94 -122 0
-121 -122 0
116 120 123 0
-116 -123 0
-120 -123 0
122 123 124 0
-122 -124 0
-123 -124 0
115 112 125 0
-115 -125 0
-112 -125 0
106 103 126 0
-106 -126 0
-103 -126 0
99 -127 128 0
-99 -128 0
127 -128 0
-99 127 129 0
99 -129 0
-127 -129 0
128 129 130 0
-128 -130 0
-129 -130 0
130 131 132 0
-130 -132 0
-131 -132 0
-130 -131 133 0
130 -133 0
131 -133 0
132 133 134 0
-132 -134 0
-133 -134 0
-126 134 135 0
126 -135 0
-134 -135 0
126 -134 136 0
-126 -136 0
134 -136 0
135 136 137 0
-135 -137 0
-136 -137 0
109 -137 138 0
-109 -138 0
137 -138 0
-109 137 139 0
109 -139 0
-137 -139 0
138 139 140 0
-138 -140 0
-139 -140 0
140 -131 141 0
-140 -141 0
131 -141 0
-140 131 142 0
140 -142 0
-131 -142 0
141 142 143 0
-141 -143 0
-142 -143 0
-125 143 144 0
125 -144 0
-143 -144 0
125 -143 145 0
-125 -145 0
143 -145 0
144 145 146 0
-144 -146 0
-145 -146 0
119 -147 148 0
-119 -148 0
147 -148 0
-119 147 149 0
119 -149 0
-147 -149 0
148 149 150 0
-148 -150 0
-149 -150 0
146 150 151 0
-146 -151 0
-150 -151 0
-124 151 152 0
124 -152 0
-151 -152 0
-146 -150 153 0
146 -153 0
150 -153 0
152 153 154 0
-152 -154 0
-153 -154 0
145 142 155 0
-145 -155 0
-142 -155 0
136 133 156 0
-136 -156 0
-133 -156 0
129 -157 158 0
-129 -158 0
157 -158 0
-129 157 159 0
129 -159 0
-157 -159 0
158 159 160 0
-158 -160 0
-159 -160 0
160 161 162 0
-160 -162 0
-161 -162 0
-160 -161 163 0
160 -163 0
161 -163 0
162 163 164 0
-162 -164 0
-163 -164 0
-156 164 165 0
156 -165 0
-164 -165 0
156 -164 166 0
-156 -166 0
164 -166 0
165 166 167 0
-165 -167 0
-166 -167 0
139 -167 168 0
-139 -168 0
167 -168 0
-139 167 169 0
139 -169 0
-167 -169 0
168 169 170 0
-168 -170 0
-169 -170 0
170 -161 171 0
-170 -171 0
161 -171 0
-170 161 172 0
170 -172 0
-161 -172 0
171 172 173 0
-171 -173 0
-172 -173 0
-155 173 174 0
155 -174 0
-173 -174 0
155 -173 175 0
-155 -175 0
173 -175 0
174 175 176 0
-174 -176 0
-175 -176 0
149 -177 178 0
-149 -178 0
177 -178 0
-149 177 179 0
149 -179 0
-177 -179 0
178 179 180 0
-178 -180 0
-179 -180 0
176 180 181 0
-176 -181 0
-180 -181 0
154 181 182 0
-154 -182 0
-181 -182 0
-176 -180 183 0
176 -183 0
180 -183 0
182 183 184 0
-182 -184 0
-183 -184 0
184 -185 186 0
-184 -186 0
185 -186 0
-159 187 188 0
159 -188 0
-187 -188 0
159 -187 189 0
-159 -189 0
187 -189 0
188 189 190 0
-188 -190 0
-189 -190 0
166 163 191 0
-166 -191 0
-163 -191 0
190 -191 192 0
-190 -192 0
191 -192 0
-190 191 193 0
190 -193 0
-191 -193 0
192 193 194 0
-192 -194 0
-193 -194 0
194 169 195 0
-194 -195 0
-169 -195 0
-194 -169 196 0
194 -196 0
169 -196 0
195 196 197 0
-195 -197 0
-196 -197 0
175 172 198 0
-175 -198 0
-172 -198 0
197 -198 199 0
-197 -199 0
198 -199 0
-197 198 200 0
197 -200 0
-198 -200 0
199 200 201 0
-199 -201 0
-200 -201 0
201 -179 202 0
-201 -202 0
179 -202 0
186 202 203 0
-186 -203 0
-202 -203 0
-201 179 204 0
201 -204 0
-179 -204 0
-184 185 205 0
184 -205 0
-185 -205 0
204 205 206 0
-204 -206 0
-205 -206 0
-203 206 207 0
203 -207 0
-206 -207 0
-186 -202 208 0
186 -208 0
202 -208 0
207 208 209 0
-207 -209 0
-208 -209 0
209 0
